Mo1 O3                                  
   1.00000000000000     
     0.0000000000000000   -3.8523546541639302    0.0000000000000000
    -3.6036826920766445    0.0000000000000000    0.0000000000000000
     0.0000000000000000   -0.4422535749515003  -22.2268609999999995
   Mo   O 
     1     3
Direct
  0.2957989846785520  0.5000000000000000  0.0737518350177105
  0.7548668646900780  0.5000000000000000  0.0893040104721033
  0.2312809042594490  0.0000000000000000  0.1016374335081028
  0.2868162463719246  0.5000000000000000 -0.0026392789979176
 
  0.00000000E+00  0.00000000E+00  0.00000000E+00
  0.00000000E+00  0.00000000E+00  0.00000000E+00
  0.00000000E+00  0.00000000E+00  0.00000000E+00
  0.00000000E+00  0.00000000E+00  0.00000000E+00
