Pd2 S4
1.0
5.501707 -0.000000 -0.000000
-0.000000 5.593919 -0.000000
-0.000000 -0.000000 21.258494
Pd S
2 4
direct
0.500000 0.000000 0.202439 Pd
0.000000 0.500000 0.202439 Pd
0.395812 0.610294 0.172839 S
0.895812 0.889706 0.232039 S
0.104188 0.110294 0.172839 S
0.604188 0.389706 0.232039 S
