pymatgen generated KPOINTS with grid density = 1000 / atom
0
Gamma
11 13 1