Cr4 H4 O8                               
   1.00000000000000     
     0.0000000000000000   -5.2446730596690250   -0.0327360000000000
     6.0201637978022999    0.0000000000000000    0.0000000000000000
     0.0000000000000000    0.0000000000000000   21.7366640000000011
   Cr   H    O 
     4     4     8
Direct
  0.9084323385908127  0.3744344532451994  0.9136336178686487
  0.4371596614091838  0.6255655467548006  0.9135703821313531
  0.9371596614091836  0.8744344532451994  0.9135703821313531
  0.4084323385908125  0.1255655467548007  0.9136336178686487
  0.2534369798867501  0.4019539044310696  0.8197749550581752
  0.5921550201132462  0.9019539044310693  0.0074290449418265
  0.7534369798867502  0.0980460955689306  0.8197749550581752
  0.0921550201132462  0.5980460955689307  0.0074290449418265
  0.0889852356991817  0.1302665491599472  0.9562402475324155
  0.2545643404414853  0.3832275606655910  0.8643834703493538
  0.5889852356991815  0.3697334508400528  0.9562402475324155
  0.2566077643008191  0.8697334508400529  0.8709637524675863
  0.5910276595585181  0.8832275606655912  0.9628205296506480
  0.7545643404414853  0.1167724393344090  0.8643834703493538
  0.7566077643008194  0.6302665491599471  0.8709637524675863
  0.0910276595585181  0.6167724393344088  0.9628205296506480
 
  0.00000000E+00  0.00000000E+00  0.00000000E+00
  0.00000000E+00  0.00000000E+00  0.00000000E+00
  0.00000000E+00  0.00000000E+00  0.00000000E+00
  0.00000000E+00  0.00000000E+00  0.00000000E+00
  0.00000000E+00  0.00000000E+00  0.00000000E+00
  0.00000000E+00  0.00000000E+00  0.00000000E+00
  0.00000000E+00  0.00000000E+00  0.00000000E+00
  0.00000000E+00  0.00000000E+00  0.00000000E+00
  0.00000000E+00  0.00000000E+00  0.00000000E+00
  0.00000000E+00  0.00000000E+00  0.00000000E+00
  0.00000000E+00  0.00000000E+00  0.00000000E+00
  0.00000000E+00  0.00000000E+00  0.00000000E+00
  0.00000000E+00  0.00000000E+00  0.00000000E+00
  0.00000000E+00  0.00000000E+00  0.00000000E+00
  0.00000000E+00  0.00000000E+00  0.00000000E+00
  0.00000000E+00  0.00000000E+00  0.00000000E+00
