Pd4 I8                                  
   1.00000000000000     
     0.0000000000000000    6.9938135267718380   -0.1808940000000000
    -8.4625524425951220    0.0000000000000000    0.0000000000000000
     0.0000000000000000    0.0000000000000000   25.3490240000000000
   Pd   I 
     4     8
Direct
  0.8200238183166527  0.6324241359336416  0.8211259183915748
  0.9447071816833449  0.3675758640663583  0.9436050816084228
  0.3200238183166529  0.8675758640663584  0.8211259183915748
  0.4447071816833447  0.1324241359336416  0.9436050816084228
  0.1159610429166393  0.5857445984909689  0.8870622107563906
  0.6487689570833607  0.4142554015090310  0.8776677892436096
  0.0073051483705650  0.8349953135942276  0.7615928153538321
  0.5073051483705651  0.6650046864057724  0.7615928153538321
  0.2574258516294324  0.3349953135942277  0.0031381846461656
  0.7574258516294325  0.1650046864057721  0.0031381846461656
  0.1487689570833608  0.0857445984909689  0.8776677892436096
  0.6159610429166394  0.9142554015090311  0.8870622107563906
 
  0.00000000E+00  0.00000000E+00  0.00000000E+00
  0.00000000E+00  0.00000000E+00  0.00000000E+00
  0.00000000E+00  0.00000000E+00  0.00000000E+00
  0.00000000E+00  0.00000000E+00  0.00000000E+00
  0.00000000E+00  0.00000000E+00  0.00000000E+00
  0.00000000E+00  0.00000000E+00  0.00000000E+00
  0.00000000E+00  0.00000000E+00  0.00000000E+00
  0.00000000E+00  0.00000000E+00  0.00000000E+00
  0.00000000E+00  0.00000000E+00  0.00000000E+00
  0.00000000E+00  0.00000000E+00  0.00000000E+00
  0.00000000E+00  0.00000000E+00  0.00000000E+00
  0.00000000E+00  0.00000000E+00  0.00000000E+00
