Pt4 I8                                  
   1.00000000000000     
     0.0000000000000000    6.9727540198519584   -0.4066960000000000
    -8.6253686735719306    0.0000000000000000    0.0000000000000000
     0.0000000000000000    0.0000000000000000   25.4533099999999983
   Pt   I 
     4     8
Direct
  0.3201473967573588  0.3696521010583199  0.8238544559238525
  0.8201473967573589  0.1303478989416801  0.8238544559238525
  0.4481556032426371  0.6303478989416802  0.9444485440761434
  0.9481556032426370  0.8696521010583198  0.9444485440761434
  0.5026273773254951  0.1703412402058372  0.7649963560371492
  0.0026273773254950  0.3296587597941629  0.7649963560371492
  0.1489046169453496  0.5804483678601660  0.8797593831010211
  0.6193983830546533  0.4195516321398340  0.8885436168989820
  0.1193983830546535  0.0804483678601659  0.8885436168989820
  0.6489046169453497  0.9195516321398340  0.8797593831010211
  0.7656756226745008  0.6703412402058371  0.0033066439628540
  0.2656756226745011  0.8296587597941629  0.0033066439628540
 
  0.00000000E+00  0.00000000E+00  0.00000000E+00
  0.00000000E+00  0.00000000E+00  0.00000000E+00
  0.00000000E+00  0.00000000E+00  0.00000000E+00
  0.00000000E+00  0.00000000E+00  0.00000000E+00
  0.00000000E+00  0.00000000E+00  0.00000000E+00
  0.00000000E+00  0.00000000E+00  0.00000000E+00
  0.00000000E+00  0.00000000E+00  0.00000000E+00
  0.00000000E+00  0.00000000E+00  0.00000000E+00
  0.00000000E+00  0.00000000E+00  0.00000000E+00
  0.00000000E+00  0.00000000E+00  0.00000000E+00
  0.00000000E+00  0.00000000E+00  0.00000000E+00
  0.00000000E+00  0.00000000E+00  0.00000000E+00
