Ge2
1.0
3.877953 0.0 0.0 
0.0 4.549868 0.0 
0.0 0.0 22.7853245543 
Ge Se 
2 2 
direct
0.250000 0.117326 0.0
0.750000 0.617326 0.122242039946
0.750000 0.495670 0.0111620036475
0.250000 0.995670 0.111080036298
